; benchmark generated from python API
(set-info :status unknown)
(declare-datatypes ((IntState 0)) (((Mk1 (val1 Int)) (Mk2 (val2 Int)))))
 (declare-fun c_main_~i~6 () Int)
(declare-fun c_main_~j~6 () Int)
(declare-fun c_main_~k~6 () Int)
(assert
 (let (($x76 (<= c_main_~i~6 3)))
 (let (($x36 (exists ((v_nnf_96_st IntState) (val!77 Int) )(let ((?x56 (val2 v_nnf_96_st)))
 (let (($x50 (<= ?x56 4)))
 (let (($x169 (and (<= (+ ?x56 2) c_main_~k~6) (<= c_main_~j~6 (+ (* 2 ?x56) 2)) $x50)))
 (let (($x52 (not (= v_nnf_96_st (Mk1 val!77)))))
 (and $x52 $x169))))))
 ))
 (let (($x16 (<= c_main_~i~6 4)))
 (let (($x95 (<= c_main_~j~6 (+ (* 2 c_main_~i~6) 1))))
 (let (($x123 (exists ((v_nnf_96 Int) )(let (($x73 (<= v_nnf_96 4)))
 (and (<= (+ v_nnf_96 2) c_main_~k~6) (<= c_main_~j~6 (+ (* 2 v_nnf_96) 2)) $x73)))
 ))
 (let (($x171 (<= c_main_~i~6 2)))
 (and (and $x95 $x16 $x171 $x123 $x76) (not (and $x95 $x16 $x36 $x76))))))))))
(check-sat)
